p cnf 88 112
-1 19 20 52 56 -57 -74 -75 -76 -77 -78 -79 -80 -81 -82 -84 -85 -86 -87 -88 -18 0 
-2 3 34 51 57 -74 -75 -76 -77 -78 -79 -80 -81 -82 -84 -85 -86 -87 -88 0 
-3 2 34 51 58 -57 -74 -75 -76 -77 -78 -79 -80 -81 -82 -84 -85 -86 -87 -88 0 
-4 6 12 50 -5 7 10 27 49 59 -57 -74 -75 -76 -77 -78 -79 -80 -81 -82 -84 -85 -86 -87 -88 0 
-6 4 12 50 60 -57 -74 -75 -76 -77 -78 -79 -80 -81 -82 -84 -85 -86 -87 -88 0 
-7 5 10 27 49 61 -57 -74 -75 -76 -77 -78 -79 -80 -81 -82 -84 -85 -86 -87 -88 0 
-3 2 34 51 62 -57 -74 -75 -76 -77 -78 -79 -80 -81 -82 -84 -85 -86 -87 -88 0 
-8 9 26 63 -57 -74 -75 -76 -77 -78 -79 -80 -81 -82 -84 -85 -86 -87 -88 0 
-9 8 26 61 -57 -74 -75 -76 -77 -78 -79 -80 -81 -82 -84 -85 -86 -87 -88 0 
-6 4 12 50 64 -57 -74 -75 -76 -77 -78 -79 -80 -81 -82 -84 -85 -86 -87 -88 0 
-1 19 20 52 60 -57 -74 -75 -76 -77 -78 -79 -80 -81 -82 -84 -85 -86 -87 -88 0 
-6 4 12 50 65 -57 -74 -75 -76 -77 -78 -79 -80 -81 -82 -84 -85 -86 -87 -88 0 
-8 9 26 61 -57 -74 -75 -76 -77 -78 -79 -80 -81 -82 -84 -85 -86 -87 -88 0 
-1 19 20 52 57 -74 -75 -76 -77 -78 -79 -80 -81 -82 -84 -85 -86 -87 -88 0 
-10 5 7 27 49 63 -57 -74 -75 -76 -77 -78 -79 -80 -81 -82 -84 -85 -86 -87 -88 0 
-1 19 20 52 62 -57 -74 -75 -76 -77 -78 -79 -80 -81 -82 -84 -85 -86 -87 -88 0 
-11 57 -74 -75 -76 -77 -78 -79 -80 -81 -82 -84 -85 -86 -87 -88 0 
-4 6 12 50 -1 19 20 52 59 -57 -74 -75 -76 -77 -78 -79 -80 -81 -82 -84 -85 -86 -87 -88 0 
-1 19 20 52 61 -57 -74 -75 -76 -77 -78 -79 -80 -81 -82 -84 -85 -86 -87 -88 0 
-12 4 6 50 66 -57 -74 -75 -76 -77 -78 -79 -80 -81 -82 -84 -85 -86 -87 -88 0 
-6 4 12 50 -13 15 23 61 -57 -74 -75 -76 -77 -78 -79 -80 -81 -82 -84 -85 -86 -87 -88 0 
-14 57 -74 -75 -76 -77 -78 -79 -80 -81 -82 -84 -85 -86 -87 -88 0 
-15 13 23 62 -57 -74 -75 -76 -77 -78 -79 -80 -81 -82 -84 -85 -86 -87 -88 0 
-15 13 23 60 -57 -74 -75 -76 -77 -78 -79 -80 -81 -82 -84 -85 -86 -87 -88 0 
-9 8 26 -1 19 20 52 59 -57 -74 -75 -76 -77 -78 -79 -80 -81 -82 -84 -85 -86 -87 -88 0 
-16 25 67 -57 -74 -75 -76 -77 -78 -79 -80 -81 -82 -84 -85 -86 -87 -88 0 
-12 4 6 50 68 -57 -74 -75 -76 -77 -78 -79 -80 -81 -82 -84 -85 -86 -87 -88 0 
-15 13 23 61 -57 -74 -75 -76 -77 -78 -79 -80 -81 -82 -84 -85 -86 -87 -88 0 
-17 57 -74 -75 -76 -77 -78 -79 -80 -81 -82 -84 -85 -86 -87 -88 0 
-9 8 26 60 -57 -74 -75 -76 -77 -78 -79 -80 -81 -82 -84 -85 -86 -87 -88 0 
-18 61 -57 -74 -75 -76 -77 -78 -79 -80 -81 -82 -84 -85 -86 -87 -88 0 
-2 3 34 51 67 -57 -74 -75 -76 -77 -78 -79 -80 -81 -82 -84 -85 -86 -87 -88 0 
-2 3 34 51 68 -57 -74 -75 -76 -77 -78 -79 -80 -81 -82 -84 -85 -86 -87 -88 0 
-6 4 12 50 61 -57 -74 -75 -76 -77 -78 -79 -80 -81 -82 -84 -85 -86 -87 -88 0 
-19 1 20 52 63 -57 -74 -75 -76 -77 -78 -79 -80 -81 -82 -84 -85 -86 -87 -88 0 
-20 1 19 52 66 -57 -74 -75 -76 -77 -78 -79 -80 -81 -82 -84 -85 -86 -87 -88 0 
-21 69 -57 -74 -75 -76 -77 -78 -79 -80 -81 -82 -84 -85 -86 -87 -88 0 
-6 4 12 50 -1 19 20 52 61 -57 -74 -75 -76 -77 -78 -79 -80 -81 -82 -84 -85 -86 -87 -88 0 
-3 2 34 51 70 -57 -74 -75 -76 -77 -78 -79 -80 -81 -82 -84 -85 -86 -87 -88 0 
-22 -19 1 20 52 61 -57 -74 -75 -76 -77 -78 -79 -80 -81 -82 -84 -85 -86 -87 -88 0 
-23 13 15 -1 19 20 52 59 -57 -74 -75 -76 -77 -78 -79 -80 -81 -82 -84 -85 -86 -87 -88 0 
-6 4 12 50 71 -57 -74 -75 -76 -77 -78 -79 -80 -81 -82 -84 -85 -86 -87 -88 0 
-20 1 19 52 63 -57 -74 -75 -76 -77 -78 -79 -80 -81 -82 -84 -85 -86 -87 -88 0 
-24 42 57 -74 -75 -76 -77 -78 -79 -80 -81 -82 -84 -85 -86 -87 -88 0 
-25 16 -26 8 9 72 -57 -74 -75 -76 -77 -78 -79 -80 -81 -82 -84 -85 -86 -87 -88 0 
-1 19 20 52 -27 5 7 10 49 66 -57 -74 -75 -76 -77 -78 -79 -80 -81 -82 -84 -85 -86 -87 -88 0 
-9 8 26 -7 5 10 27 49 63 -57 -74 -75 -76 -77 -78 -79 -80 -81 -82 -84 -85 -86 -87 -88 0 
-25 16 -28 72 -57 -74 -75 -76 -77 -78 -79 -80 -81 -82 -84 -85 -86 -87 -88 0 
-19 1 20 52 73 -57 -74 -75 -76 -77 -78 -79 -80 -81 -82 -84 -85 -86 -87 -88 0 
-2 3 34 51 66 -57 -74 -75 -76 -77 -78 -79 -80 -81 -82 -84 -85 -86 -87 -88 0 
-1 19 20 52 -25 16 63 -57 -74 -75 -76 -77 -78 -79 -80 -81 -82 -84 -85 -86 -87 -88 0 
-1 19 20 52 -4 6 12 50 59 -57 -74 -75 -76 -77 -78 -79 -80 -81 -82 -84 -85 -86 -87 -88 0 
-3 2 34 51 -26 8 9 61 -57 -74 -75 -76 -77 -78 -79 -80 -81 -82 -84 -85 -86 -87 -88 0 
-19 1 20 52 -29 39 63 -57 -74 -75 -76 -77 -78 -79 -80 -81 -82 -84 -85 -86 -87 -88 0 
-19 1 20 52 -30 -31 63 -57 -74 -75 -76 -77 -78 -79 -80 -81 -82 -84 -85 -86 -87 -88 0 
-32 57 -74 -75 -76 -77 -78 -79 -80 -81 -82 -84 -85 -86 -87 -88 0 
-29 39 57 -74 -75 -76 -77 -78 -79 -80 -81 -82 -84 -85 -86 -87 -88 0 
-33 57 -74 -75 -76 -77 -78 -79 -80 -81 -82 -84 -85 -86 -87 -88 0 
-34 2 3 51 57 -74 -75 -76 -77 -78 -79 -80 -81 -82 -84 -85 -86 -87 -88 0 
-35 57 -74 -75 -76 -77 -78 -79 -80 -81 -82 -84 -85 -86 -87 -88 0 
-19 1 20 52 -36 63 -57 -74 -75 -76 -77 -78 -79 -80 -81 -82 -84 -85 -86 -87 -88 0 
-37 57 -74 -75 -76 -77 -78 -79 -80 -81 -82 -84 -85 -86 -87 -88 0 
-29 39 -24 42 57 -74 -75 -76 -77 -78 -79 -80 -81 -82 -84 -85 -86 -87 -88 0 
-38 63 -57 -74 -75 -76 -77 -78 -79 -80 -81 -82 -84 -85 -86 -87 -88 0 
-39 29 -40 -41 45 -42 24 -43 74 -57 -75 -76 -77 -78 -79 -80 -81 -82 -84 -85 -86 -87 -88 0 
-39 29 -40 -41 45 -42 24 -43 75 -57 -74 -76 -77 -78 -79 -80 -81 -82 -84 -85 -86 -87 -88 0 
-39 29 -40 -41 45 -42 24 -43 76 -57 -74 -75 -77 -78 -79 -80 -81 -82 -84 -85 -86 -87 -88 0 
-39 29 -40 -41 45 -42 24 -43 77 -57 -74 -75 -76 -78 -79 -80 -81 -82 -84 -85 -86 -87 -88 0 
-39 29 -40 -41 45 -42 24 -43 78 -57 -74 -75 -76 -77 -79 -80 -81 -82 -84 -85 -86 -87 -88 0 
-39 29 -40 -41 45 -42 24 -43 79 -57 -74 -75 -76 -77 -78 -80 -81 -82 -84 -85 -86 -87 -88 0 
-39 29 -40 -41 45 -42 24 -43 80 -57 -74 -75 -76 -77 -78 -79 -81 -82 -84 -85 -86 -87 -88 0 
-39 29 -40 -41 45 -42 24 -43 81 -57 -74 -75 -76 -77 -78 -79 -80 -82 -84 -85 -86 -87 -88 0 
-44 46 -41 45 -45 41 -29 39 57 -74 -75 -76 -77 -78 -79 -80 -81 -82 -84 -85 -86 -87 -88 0 
-45 41 -29 39 57 -74 -75 -76 -77 -78 -79 -80 -81 -82 -84 -85 -86 -87 -88 0 
-39 29 -40 -46 44 57 -74 -75 -76 -77 -78 -79 -80 -81 -82 -84 -85 -86 -87 -88 0 
-6 4 12 50 -47 62 -57 -74 -75 -76 -77 -78 -79 -80 -81 -82 -84 -85 -86 -87 -88 0 
-6 4 12 50 -26 8 9 61 -57 -74 -75 -76 -77 -78 -79 -80 -81 -82 -84 -85 -86 -87 -88 0 
-6 4 12 50 -25 16 61 -57 -74 -75 -76 -77 -78 -79 -80 -81 -82 -84 -85 -86 -87 -88 0 
-27 5 7 10 49 -1 19 20 52 62 -57 -74 -75 -76 -77 -78 -79 -80 -81 -82 -84 -85 -86 -87 -88 0 
-3 2 34 51 -1 19 20 52 60 -57 -74 -75 -76 -77 -78 -79 -80 -81 -82 -84 -85 -86 -87 -88 0 
-3 2 34 51 56 -57 -74 -75 -76 -77 -78 -79 -80 -81 -82 -84 -85 -86 -87 -88 -18 0 
-1 19 20 52 -48 57 -74 -75 -76 -77 -78 -79 -80 -81 -82 -84 -85 -86 -87 -88 0 
-20 1 19 52 56 -57 -74 -75 -76 -77 -78 -79 -80 -81 -82 -84 -85 -86 -87 -88 -18 0 
-9 8 26 -1 19 20 52 63 -57 -74 -75 -76 -77 -78 -79 -80 -81 -82 -84 -85 -86 -87 -88 0 
-1 19 20 52 -27 5 7 10 49 63 -57 -74 -75 -76 -77 -78 -79 -80 -81 -82 -84 -85 -86 -87 -88 0 
-49 5 7 10 27 82 -57 -74 -75 -76 -77 -78 -79 -80 -81 -84 -85 -86 -87 -88 0 
-1 19 20 52 -9 8 26 63 -57 -74 -75 -76 -77 -78 -79 -80 -81 -82 -84 -85 -86 -87 -88 0 
-16 25 83 -57 -74 -75 -76 -77 -78 -79 -80 -81 -82 -84 -85 -86 -87 -88 0 
-50 4 6 12 67 -57 -74 -75 -76 -77 -78 -79 -80 -81 -82 -84 -85 -86 -87 -88 0 
-3 2 34 51 -1 19 20 52 63 -57 -74 -75 -76 -77 -78 -79 -80 -81 -82 -84 -85 -86 -87 -88 0 
-51 2 3 34 -1 19 20 52 59 -57 -74 -75 -76 -77 -78 -79 -80 -81 -82 -84 -85 -86 -87 -88 0 
-20 1 19 52 57 -74 -75 -76 -77 -78 -79 -80 -81 -82 -84 -85 -86 -87 -88 0 
-10 5 7 27 49 57 -74 -75 -76 -77 -78 -79 -80 -81 -82 -84 -85 -86 -87 -88 0 
-1 19 20 52 -28 63 -57 -74 -75 -76 -77 -78 -79 -80 -81 -82 -84 -85 -86 -87 -88 0 
-52 1 19 20 82 -57 -74 -75 -76 -77 -78 -79 -80 -81 -84 -85 -86 -87 -88 0 
-45 41 -53 55 57 -74 -75 -76 -77 -78 -79 -80 -81 -82 -84 -85 -86 -87 -88 0 
-32 -37 57 -74 -75 -76 -77 -78 -79 -80 -81 -82 -84 -85 -86 -87 -88 0 
-29 39 -40 57 -74 -75 -76 -77 -78 -79 -80 -81 -82 -84 -85 -86 -87 -88 0 
-1 19 20 52 -39 29 57 -74 -75 -76 -77 -78 -79 -80 -81 -82 -84 -85 -86 -87 -88 0 
-1 19 20 52 -39 29 56 -57 -74 -75 -76 -77 -78 -79 -80 -81 -82 -84 -85 -86 -87 -88 -18 0 
-48 57 -74 -75 -76 -77 -78 -79 -80 -81 -82 -84 -85 -86 -87 -88 0 
-37 57 -74 -75 -76 -77 -78 -79 -80 -81 -82 -84 -85 -86 -87 -88 0 
-39 29 57 -74 -75 -76 -77 -78 -79 -80 -81 -82 -84 -85 -86 -87 -88 0 
-16 25 -54 -36 67 -57 -74 -75 -76 -77 -78 -79 -80 -81 -82 -84 -85 -86 -87 -88 0 
-45 41 -55 53 -29 39 57 -74 -75 -76 -77 -78 -79 -80 -81 -82 -84 -85 -86 -87 -88 0 
-37 84 -57 -74 -75 -76 -77 -78 -79 -80 -81 -82 -85 -86 -87 -88 0 
-37 85 -57 -74 -75 -76 -77 -78 -79 -80 -81 -82 -84 -86 -87 -88 0 
-37 86 -57 -74 -75 -76 -77 -78 -79 -80 -81 -82 -84 -85 -87 -88 0 
-37 87 -57 -74 -75 -76 -77 -78 -79 -80 -81 -82 -84 -85 -86 -88 0 
-37 88 -57 -74 -75 -76 -77 -78 -79 -80 -81 -82 -84 -85 -86 -87 0 
-29 39 -40 -41 45 -45 41 57 -74 -75 -76 -77 -78 -79 -80 -81 -82 -84 -85 -86 -87 -88 0 
-1 19 20 52 -48 56 -57 -74 -75 -76 -77 -78 -79 -80 -81 -82 -84 -85 -86 -87 -88 -18 0 
